45 
300 
-0.5 0 0 0
0.5 0 0 -15
-7 -7 -35 -87
-7 -5 35 -22
-7 -3 -35 -120
-7 -1 -35 -130
-7 1 35 -23
-7 3 35 -26
-7 5 35 -12
-7 7 -35 -120
-5 -7 35 -27
-5 -5 25 -12
-5 -3 -25 -99
-5 -1 -25 -121
-5 1 -25 -78
-5 3 25 -14
-5 5 25 -15
-5 7 -35 -126
-3 -7 -35 -70
-3 -5 25 -22
-3 -3 -15 -126
-3 -1 -15 -67
-3 1 15 -23
-3 3 15 -21
-3 5 -25 -92
-3 7 -35 -132
-1 -7 -35 -78
-1 -5 25 -19
-1 -3 -15 -96
-1 -1 -5 -114
-1 1 5 -17
-1 3 -15 -106
-1 5 25 -17
-1 7 -35 -109
1 -7 35 -18
1 -5 -25 -135
1 -3 15 -24
1 -1 -5 -70
1 1 -5 -122
1 3 15 -13
1 5 -25 -123
1 7 35 -18
3 -7 -35 -126
3 -5 25 -17
3 -3 -15 -110
3 -1 15 -19
3 1 -15 -136
3 3 -15 -128
3 5 -25 -85
3 7 -35 -94
5 -7 -35 -120
5 -5 -25 -77
5 -3 25 -27
5 -1 -25 -75
5 1 -25 -132
5 3 25 -19
5 5 25 -18
5 7 -35 -70
7 -7 35 -15
7 -5 35 -15
7 -3 -35 -127
7 -1 -35 -125
7 1 -35 -100
7 3 35 -24
7 5 -35 -88
7 7 -35 -139
